NAME : RWPToy-10-2
COMMENT : Toy. 5 postmen. Max route 31304=21599.76s=6h.
TYPE : TSP
DIMENSION : 11
VEHICLES : 5
SCALE : 100000
DISTANCE : 21599.760000
EDGE_WEIGHT_TYPE : EXPLICIT
EDGE_WEIGHT_FORMAT : UPPER_ROW
EDGE_WEIGHT_SECTION
583.564794
181.867976
679.678198
982.980155
699.671639
631.833348
356.921597
817.823099
1192.547570
104.516337

600.137714
696.967032
479.027091
690.771631
1159.435639
925.306391
628.319394
1713.550995
599.512950

590.822894
1042.773445
698.151216
717.285506
356.285790
970.501659
1264.206164
112.915249

872.588810
123.316228
1235.025373
923.977528
1183.951531
1795.739595
593.122170

855.651490
1521.449029
1324.721752
906.496369
2075.564385
1026.193466

1275.542485
1035.032579
1177.756130
1829.657841
700.450493

878.917220
871.670655
626.058986
687.770152

1159.564697
1333.381736
446.257934

1376.201062
861.036410

1248.484375

DEPOT_SECTION
1
-1
EOF
